c Sudoku solution
p cnf 729 0
137 0
164 0
185 0
219 0
267 0
286 0
298 0
318 0
324 0
274 0
349 0
365 0
391 0
499 0
179 0
521 0
632 0
641 0
663 0
697 0
723 0
738 0
787 0
377 0
856 0
146 0
158 0
251 0
111 0
193 0
382 0
122 0
225 0
233 0
336 0
242 0
353 0
914 0
929 0
716 0
812 0
827 0
889 0
615 0
434 0
539 0
659 0
684 0
769 0
771 0
481 0
978 0
996 0
792 0
894 0
875 0
983 0
843 0
831 0
935 0
868 0
961 0
952 0
947 0
595 0
676 0
588 0
566 0
462 0
473 0
572 0
417 0
513 0
426 0
628 0
455 0
448 0
557 0
544 0
745 0
754 0
